param set_len = 18;
param target_sum = 5061616156;
param values := [1] 894961266 [2] 866498669 [3] 639530018 [4] 124542640 [5] 994557188 [6] 727053660 [7] 866317542 [8] 73828659 [9] 754451459 [10] 368664730 [11] 879892867 [12] 700972726 [13] 584332146 [14] 856653913 [15] 31707189 [16] 438081320 [17] 668631531 [18] 449567213 ;
